1469.31 0
0 74 98 71 75 76 14 0
0 5 90 47 96 69 67 35 10 0
0 100 9 11 4 8 99 0
0 86 52 63 66 65 64 78 83 80 77 53 48 36 41 50 0
0 13 37 18 22 30 34 27 16 23 33 25 44 0
0 73 68 54 55 60 57 56 59 61 62 58 72 7 0
0 85 93 38 51 40 70 0
0 45 32 19 28 24 17 15 39 0
0 12 94 95 43 42 82 79 81 29 21 20 26 31 46 2 0
0 6 91 88 92 89 84 49 87 97 0
0 1 3 0
